n_res = 4;
rc = [ 13, 15, 13, 16 ];
n_tasks = 30;
d = [ 7, 10, 2, 3, 2, 1, 3, 5, 10, 9, 9, 3, 5, 1, 6, 6, 9, 5, 2, 9, 3, 5, 8, 2, 3, 10, 2, 8, 1, 9 ];
rr = [| 6, 0, 4, 5, 6, 0, 0, 9, 0, 0, 0, 0, 0, 0, 6, 2, 0, 0, 7, 0, 1, 0, 3, 0, 9, 0, 0, 0, 0, 0
      | 0, 8, 0, 0, 0, 0, 9, 0, 0, 0, 5, 0, 0, 0, 0, 0, 0, 7, 0, 5, 0, 0, 0, 0, 0, 0, 0, 0, 0, 0
      | 0, 0, 0, 0, 0, 0, 0, 0, 1, 0, 0, 2, 0, 0, 0, 0, 0, 0, 0, 0, 0, 4, 0, 6, 0, 10, 3, 0, 3, 0
      | 0, 0, 0, 0, 0, 10, 0, 0, 0, 3, 0, 0, 10, 8, 0, 0, 9, 0, 0, 0, 0, 0, 0, 0, 0, 0, 0, 5, 0, 6 |];
suc = [ { 2 }, 
        { 3 }, 
        { 4 }, 
        { 5 }, 
        { 6 }, 
        { 7 }, 
        { 8 }, 
        { 9 }, 
        { 10 }, 
        { 11 }, 
        { 12 }, 
        { 13 }, 
        { 14 }, 
        { 15 }, 
        { 16 }, 
        { 17 }, 
        { 18 }, 
        { 19 }, 
        { 20 }, 
        { 21 }, 
        { 22 }, 
        { 23 }, 
        { 24 }, 
        { 25 }, 
        { 26 }, 
        { 27 }, 
        { 28 }, 
        { 29 }, 
        { 30 }, 
        {  }]; 
